(declare-fun b_ack!83 () (_ BitVec 32))
(declare-fun a_ack!85 () (_ BitVec 32))
(declare-fun c_ack!84 () (_ BitVec 64))
(assert (not (bvslt b_ack!83 #x00000000)))
(assert (not (bvslt a_ack!85 #x00000000)))
(assert (= #x00000000 a_ack!85))
(assert (not (bvslt b_ack!83 #x00000000)))
(assert (not (= #x00000000 b_ack!83)))
(assert (not (= #x00000001 b_ack!83)))
(assert (fp.gt (fp.abs (fp.mul roundNearestTiesToEven
                       ((_ to_fp 11 53) #x4000000000000000)
                       ((_ to_fp 11 53) c_ack!84)))
       ((_ to_fp 11 53) #x3ff0000000000000)))

(check-sat)
(exit)
